p edge 100 1485
e 1 3
e 1 4
e 1 6
e 1 7
e 1 8
e 1 10
e 1 20
e 1 30
e 1 32
e 1 37
e 1 41
e 1 44
e 1 46
e 1 47
e 1 52
e 1 58
e 1 70
e 1 74
e 1 76
e 1 78
e 1 80
e 1 82
e 1 86
e 1 87
e 1 90
e 1 95
e 1 99
e 1 100
e 2 5
e 2 12
e 2 13
e 2 18
e 2 20
e 2 21
e 2 23
e 2 24
e 2 28
e 2 29
e 2 33
e 2 36
e 2 41
e 2 46
e 2 51
e 2 53
e 2 62
e 2 68
e 2 72
e 2 73
e 2 79
e 2 82
e 2 84
e 2 88
e 2 94
e 2 98
e 3 8
e 3 9
e 3 11
e 3 12
e 3 19
e 3 23
e 3 29
e 3 30
e 3 34
e 3 36
e 3 37
e 3 39
e 3 46
e 3 50
e 3 52
e 3 53
e 3 54
e 3 56
e 3 60
e 3 61
e 3 63
e 3 65
e 3 67
e 3 75
e 3 80
e 3 81
e 3 82
e 3 87
e 3 93
e 3 94
e 3 96
e 3 99
e 4 12
e 4 15
e 4 17
e 4 20
e 4 21
e 4 26
e 4 30
e 4 36
e 4 57
e 4 59
e 4 64
e 4 72
e 4 76
e 4 82
e 4 85
e 4 89
e 4 92
e 4 96
e 5 12
e 5 19
e 5 20
e 5 21
e 5 26
e 5 28
e 5 30
e 5 31
e 5 33
e 5 34
e 5 38
e 5 41
e 5 43
e 5 44
e 5 48
e 5 54
e 5 57
e 5 58
e 5 59
e 5 63
e 5 64
e 5 67
e 5 68
e 5 71
e 5 73
e 5 75
e 5 77
e 5 80
e 5 84
e 5 85
e 5 88
e 5 91
e 5 96
e 5 100
e 6 9
e 6 12
e 6 18
e 6 21
e 6 28
e 6 30
e 6 35
e 6 38
e 6 40
e 6 41
e 6 46
e 6 52
e 6 53
e 6 58
e 6 59
e 6 63
e 6 72
e 6 74
e 6 78
e 6 85
e 6 87
e 6 88
e 6 93
e 6 94
e 6 98
e 6 99
e 6 100
e 7 10
e 7 15
e 7 16
e 7 23
e 7 24
e 7 39
e 7 43
e 7 46
e 7 48
e 7 49
e 7 51
e 7 52
e 7 57
e 7 58
e 7 61
e 7 65
e 7 66
e 7 67
e 7 68
e 7 69
e 7 71
e 7 72
e 7 78
e 7 79
e 7 86
e 7 87
e 7 90
e 7 92
e 7 99
e 8 11
e 8 12
e 8 13
e 8 14
e 8 17
e 8 20
e 8 22
e 8 24
e 8 26
e 8 29
e 8 37
e 8 44
e 8 48
e 8 54
e 8 55
e 8 59
e 8 60
e 8 61
e 8 62
e 8 64
e 8 69
e 8 73
e 8 78
e 8 80
e 8 84
e 8 88
e 8 92
e 8 97
e 8 98
e 8 100
e 9 11
e 9 13
e 9 18
e 9 20
e 9 22
e 9 28
e 9 29
e 9 30
e 9 31
e 9 35
e 9 37
e 9 41
e 9 43
e 9 45
e 9 46
e 9 49
e 9 51
e 9 52
e 9 61
e 9 63
e 9 71
e 9 72
e 9 74
e 9 76
e 9 77
e 9 78
e 9 79
e 9 82
e 9 86
e 9 87
e 9 90
e 9 93
e 10 15
e 10 16
e 10 24
e 10 27
e 10 29
e 10 31
e 10 32
e 10 37
e 10 40
e 10 42
e 10 43
e 10 46
e 10 49
e 10 55
e 10 59
e 10 61
e 10 63
e 10 66
e 10 68
e 10 69
e 10 74
e 10 77
e 10 79
e 10 80
e 10 82
e 10 83
e 10 92
e 10 96
e 10 99
e 11 12
e 11 20
e 11 25
e 11 27
e 11 32
e 11 33
e 11 35
e 11 37
e 11 42
e 11 48
e 11 53
e 11 55
e 11 58
e 11 62
e 11 66
e 11 68
e 11 73
e 11 79
e 11 83
e 11 91
e 11 96
e 11 99
e 12 15
e 12 18
e 12 26
e 12 28
e 12 31
e 12 32
e 12 34
e 12 35
e 12 37
e 12 42
e 12 43
e 12 44
e 12 54
e 12 58
e 12 60
e 12 67
e 12 69
e 12 74
e 12 75
e 12 78
e 12 81
e 12 82
e 12 86
e 12 88
e 12 91
e 12 93
e 12 97
e 12 99
e 13 16
e 13 18
e 13 19
e 13 22
e 13 24
e 13 26
e 13 29
e 13 32
e 13 34
e 13 39
e 13 40
e 13 42
e 13 51
e 13 52
e 13 53
e 13 57
e 13 59
e 13 64
e 13 69
e 13 72
e 13 73
e 13 76
e 13 81
e 13 82
e 13 85
e 13 86
e 13 90
e 13 92
e 13 95
e 13 96
e 13 98
e 14 21
e 14 22
e 14 33
e 14 35
e 14 40
e 14 42
e 14 43
e 14 45
e 14 50
e 14 51
e 14 59
e 14 61
e 14 62
e 14 63
e 14 67
e 14 74
e 14 76
e 14 78
e 14 82
e 14 87
e 14 89
e 14 90
e 14 98
e 14 99
e 14 100
e 15 25
e 15 32
e 15 43
e 15 51
e 15 69
e 15 74
e 15 77
e 15 78
e 15 81
e 15 86
e 15 100
e 16 20
e 16 24
e 16 38
e 16 39
e 16 44
e 16 46
e 16 55
e 16 56
e 16 67
e 16 68
e 16 69
e 16 70
e 16 71
e 16 72
e 16 73
e 16 74
e 16 75
e 16 78
e 16 79
e 16 88
e 16 90
e 16 91
e 16 94
e 17 20
e 17 28
e 17 31
e 17 39
e 17 42
e 17 43
e 17 45
e 17 47
e 17 56
e 17 57
e 17 73
e 17 76
e 17 80
e 17 90
e 17 95
e 17 96
e 17 98
e 17 100
e 18 21
e 18 22
e 18 25
e 18 31
e 18 33
e 18 36
e 18 40
e 18 42
e 18 43
e 18 45
e 18 47
e 18 49
e 18 50
e 18 51
e 18 61
e 18 63
e 18 65
e 18 70
e 18 71
e 18 73
e 18 75
e 18 77
e 18 78
e 18 82
e 18 83
e 18 89
e 18 93
e 18 97
e 18 98
e 19 20
e 19 24
e 19 30
e 19 31
e 19 32
e 19 35
e 19 39
e 19 46
e 19 47
e 19 52
e 19 55
e 19 61
e 19 62
e 19 64
e 19 69
e 19 70
e 19 75
e 19 79
e 19 80
e 19 81
e 19 83
e 19 85
e 19 86
e 19 88
e 19 97
e 19 98
e 19 99
e 20 23
e 20 24
e 20 25
e 20 29
e 20 36
e 20 39
e 20 40
e 20 43
e 20 44
e 20 49
e 20 54
e 20 57
e 20 59
e 20 64
e 20 66
e 20 68
e 20 73
e 20 76
e 20 82
e 20 83
e 20 84
e 20 89
e 20 90
e 20 92
e 20 93
e 20 94
e 20 98
e 21 25
e 21 28
e 21 30
e 21 32
e 21 37
e 21 42
e 21 45
e 21 46
e 21 49
e 21 58
e 21 59
e 21 67
e 21 85
e 21 88
e 21 89
e 21 92
e 21 96
e 21 98
e 21 99
e 22 24
e 22 26
e 22 29
e 22 36
e 22 37
e 22 39
e 22 42
e 22 43
e 22 50
e 22 53
e 22 56
e 22 61
e 22 62
e 22 63
e 22 69
e 22 76
e 22 81
e 22 86
e 22 91
e 22 93
e 22 98
e 23 26
e 23 29
e 23 30
e 23 35
e 23 37
e 23 39
e 23 40
e 23 44
e 23 45
e 23 54
e 23 69
e 23 70
e 23 71
e 23 72
e 23 79
e 23 83
e 23 89
e 23 90
e 23 96
e 24 28
e 24 30
e 24 36
e 24 37
e 24 40
e 24 44
e 24 45
e 24 46
e 24 50
e 24 51
e 24 55
e 24 57
e 24 59
e 24 60
e 24 61
e 24 62
e 24 64
e 24 67
e 24 71
e 24 72
e 24 75
e 24 82
e 24 84
e 25 26
e 25 29
e 25 31
e 25 36
e 25 37
e 25 42
e 25 48
e 25 49
e 25 50
e 25 52
e 25 58
e 25 61
e 25 66
e 25 68
e 25 73
e 25 79
e 25 85
e 25 92
e 25 94
e 25 95
e 25 97
e 26 29
e 26 30
e 26 31
e 26 33
e 26 34
e 26 35
e 26 38
e 26 46
e 26 50
e 26 51
e 26 52
e 26 59
e 26 63
e 26 64
e 26 66
e 26 69
e 26 70
e 26 73
e 26 74
e 26 75
e 26 76
e 26 80
e 26 81
e 26 82
e 26 87
e 26 89
e 26 93
e 26 96
e 26 97
e 26 98
e 26 99
e 27 30
e 27 32
e 27 35
e 27 36
e 27 37
e 27 38
e 27 41
e 27 44
e 27 46
e 27 51
e 27 54
e 27 64
e 27 68
e 27 76
e 27 78
e 27 81
e 27 86
e 27 88
e 27 90
e 27 91
e 27 100
e 28 30
e 28 32
e 28 37
e 28 41
e 28 42
e 28 54
e 28 59
e 28 60
e 28 61
e 28 63
e 28 67
e 28 70
e 28 72
e 28 75
e 28 81
e 28 83
e 28 86
e 28 89
e 28 90
e 28 91
e 28 92
e 28 93
e 29 30
e 29 42
e 29 45
e 29 55
e 29 62
e 29 67
e 29 71
e 29 73
e 29 75
e 29 78
e 29 81
e 29 89
e 29 94
e 29 95
e 29 97
e 29 99
e 29 100
e 30 31
e 30 33
e 30 34
e 30 37
e 30 38
e 30 42
e 30 47
e 30 48
e 30 49
e 30 52
e 30 56
e 30 61
e 30 65
e 30 69
e 30 71
e 30 72
e 30 81
e 30 83
e 30 84
e 30 91
e 30 93
e 30 98
e 31 33
e 31 34
e 31 35
e 31 36
e 31 39
e 31 42
e 31 50
e 31 53
e 31 55
e 31 57
e 31 58
e 31 60
e 31 72
e 31 74
e 31 77
e 31 79
e 31 81
e 31 88
e 31 90
e 31 92
e 31 99
e 31 100
e 32 35
e 32 37
e 32 41
e 32 43
e 32 48
e 32 52
e 32 53
e 32 58
e 32 62
e 32 72
e 32 73
e 32 81
e 32 82
e 32 84
e 32 85
e 32 87
e 32 90
e 32 91
e 32 96
e 33 35
e 33 38
e 33 41
e 33 45
e 33 47
e 33 48
e 33 50
e 33 51
e 33 65
e 33 66
e 33 67
e 33 69
e 33 71
e 33 72
e 33 77
e 33 84
e 33 86
e 33 88
e 33 89
e 33 93
e 33 95
e 33 99
e 34 40
e 34 47
e 34 48
e 34 49
e 34 63
e 34 66
e 34 69
e 34 77
e 34 79
e 34 81
e 34 85
e 34 87
e 34 88
e 34 89
e 34 90
e 34 93
e 34 95
e 34 97
e 35 36
e 35 37
e 35 39
e 35 41
e 35 42
e 35 45
e 35 47
e 35 48
e 35 54
e 35 60
e 35 63
e 35 65
e 35 66
e 35 70
e 35 72
e 35 74
e 35 75
e 35 77
e 35 78
e 35 84
e 35 85
e 35 87
e 35 93
e 35 94
e 35 97
e 35 99
e 36 38
e 36 39
e 36 40
e 36 44
e 36 45
e 36 49
e 36 50
e 36 56
e 36 57
e 36 59
e 36 60
e 36 61
e 36 64
e 36 71
e 36 72
e 36 73
e 36 74
e 36 76
e 36 84
e 36 85
e 36 88
e 36 89
e 36 91
e 36 93
e 36 98
e 36 99
e 37 39
e 37 42
e 37 47
e 37 48
e 37 52
e 37 56
e 37 57
e 37 60
e 37 61
e 37 73
e 37 74
e 37 79
e 37 86
e 37 91
e 37 93
e 37 95
e 37 96
e 37 97
e 37 99
e 37 100
e 38 42
e 38 50
e 38 51
e 38 59
e 38 61
e 38 63
e 38 66
e 38 68
e 38 70
e 38 74
e 38 78
e 38 82
e 38 84
e 38 89
e 38 95
e 38 96
e 39 40
e 39 41
e 39 49
e 39 50
e 39 54
e 39 57
e 39 61
e 39 63
e 39 64
e 39 68
e 39 70
e 39 74
e 39 82
e 39 84
e 39 88
e 39 89
e 39 90
e 39 92
e 39 97
e 39 98
e 39 99
e 40 41
e 40 44
e 40 45
e 40 46
e 40 53
e 40 54
e 40 55
e 40 56
e 40 57
e 40 60
e 40 63
e 40 65
e 40 68
e 40 71
e 40 73
e 40 75
e 40 76
e 40 77
e 40 85
e 41 47
e 41 49
e 41 53
e 41 59
e 41 62
e 41 63
e 41 65
e 41 70
e 41 72
e 41 73
e 41 74
e 41 94
e 41 95
e 41 97
e 41 100
e 42 46
e 42 47
e 42 51
e 42 53
e 42 54
e 42 56
e 42 58
e 42 68
e 42 70
e 42 75
e 42 76
e 42 81
e 42 87
e 42 93
e 42 94
e 42 95
e 42 96
e 43 46
e 43 47
e 43 48
e 43 51
e 43 54
e 43 58
e 43 61
e 43 75
e 43 81
e 43 87
e 43 90
e 43 91
e 43 94
e 43 96
e 43 99
e 44 45
e 44 51
e 44 55
e 44 60
e 44 66
e 44 70
e 44 73
e 44 74
e 44 75
e 44 76
e 44 78
e 44 79
e 44 80
e 44 84
e 44 85
e 44 89
e 44 91
e 44 96
e 44 100
e 45 51
e 45 52
e 45 54
e 45 55
e 45 56
e 45 63
e 45 65
e 45 69
e 45 73
e 45 79
e 45 83
e 45 91
e 45 96
e 46 50
e 46 56
e 46 59
e 46 63
e 46 67
e 46 69
e 46 70
e 46 83
e 46 86
e 46 90
e 46 92
e 46 93
e 46 96
e 46 99
e 47 48
e 47 51
e 47 56
e 47 57
e 47 59
e 47 68
e 47 72
e 47 75
e 47 78
e 47 81
e 47 86
e 47 94
e 47 95
e 47 97
e 47 98
e 47 100
e 48 53
e 48 58
e 48 59
e 48 60
e 48 67
e 48 68
e 48 69
e 48 70
e 48 73
e 48 74
e 48 76
e 48 77
e 48 83
e 48 84
e 48 88
e 48 91
e 48 95
e 48 98
e 49 50
e 49 51
e 49 52
e 49 53
e 49 56
e 49 57
e 49 60
e 49 64
e 49 65
e 49 66
e 49 70
e 49 71
e 49 76
e 49 78
e 49 80
e 49 83
e 49 85
e 49 89
e 49 91
e 49 96
e 49 97
e 50 51
e 50 52
e 50 54
e 50 55
e 50 61
e 50 62
e 50 64
e 50 65
e 50 66
e 50 67
e 50 70
e 50 74
e 50 76
e 50 79
e 50 85
e 50 89
e 50 94
e 50 99
e 50 100
e 51 54
e 51 57
e 51 58
e 51 61
e 51 62
e 51 64
e 51 67
e 51 68
e 51 73
e 51 78
e 51 82
e 51 83
e 51 94
e 51 97
e 51 100
e 52 57
e 52 58
e 52 60
e 52 63
e 52 64
e 52 66
e 52 67
e 52 70
e 52 72
e 52 74
e 52 75
e 52 77
e 52 78
e 52 79
e 52 80
e 52 83
e 52 84
e 52 85
e 52 87
e 52 89
e 52 93
e 52 95
e 52 96
e 52 98
e 53 56
e 53 59
e 53 68
e 53 69
e 53 71
e 53 74
e 53 80
e 53 81
e 53 82
e 53 83
e 53 87
e 53 89
e 53 90
e 53 92
e 53 94
e 53 95
e 53 96
e 53 97
e 53 99
e 54 55
e 54 58
e 54 61
e 54 65
e 54 72
e 54 73
e 54 74
e 54 83
e 54 84
e 54 88
e 54 89
e 54 90
e 54 96
e 54 98
e 55 60
e 55 63
e 55 67
e 55 69
e 55 78
e 55 80
e 55 82
e 55 87
e 55 88
e 55 89
e 55 94
e 55 96
e 55 99
e 55 100
e 56 58
e 56 60
e 56 61
e 56 64
e 56 65
e 56 66
e 56 69
e 56 79
e 56 85
e 56 95
e 56 97
e 56 98
e 56 99
e 57 61
e 57 63
e 57 64
e 57 66
e 57 67
e 57 69
e 57 71
e 57 72
e 57 77
e 57 84
e 57 88
e 57 89
e 57 93
e 57 95
e 57 100
e 58 62
e 58 63
e 58 66
e 58 69
e 58 70
e 58 73
e 58 74
e 58 75
e 58 78
e 58 80
e 58 89
e 58 92
e 58 93
e 58 94
e 58 95
e 58 100
e 59 61
e 59 62
e 59 64
e 59 68
e 59 70
e 59 72
e 59 75
e 59 76
e 59 82
e 59 83
e 60 63
e 60 65
e 60 66
e 60 69
e 60 71
e 60 72
e 60 78
e 60 80
e 60 83
e 60 93
e 60 99
e 61 62
e 61 70
e 61 72
e 61 73
e 61 74
e 61 82
e 61 83
e 61 84
e 61 90
e 61 91
e 61 95
e 61 96
e 61 100
e 62 63
e 62 64
e 62 67
e 62 68
e 62 73
e 62 74
e 62 75
e 62 79
e 62 81
e 62 82
e 62 89
e 62 91
e 62 92
e 62 94
e 62 99
e 62 100
e 63 65
e 63 67
e 63 70
e 63 76
e 63 78
e 63 79
e 63 82
e 63 85
e 63 89
e 63 90
e 63 94
e 63 98
e 63 100
e 64 66
e 64 67
e 64 71
e 64 72
e 64 74
e 64 75
e 64 78
e 64 79
e 64 81
e 64 88
e 64 89
e 64 91
e 64 92
e 65 66
e 65 71
e 65 73
e 65 81
e 65 82
e 65 84
e 65 85
e 65 88
e 65 90
e 65 91
e 65 92
e 65 97
e 65 98
e 65 100
e 66 67
e 66 74
e 66 75
e 66 83
e 66 86
e 66 89
e 66 93
e 66 96
e 66 99
e 67 75
e 67 76
e 67 80
e 67 82
e 67 86
e 67 87
e 67 90
e 67 93
e 68 72
e 68 73
e 68 76
e 68 78
e 68 83
e 68 90
e 68 96
e 68 98
e 68 99
e 69 70
e 69 77
e 69 85
e 69 88
e 69 91
e 70 71
e 70 83
e 70 86
e 70 89
e 70 90
e 70 95
e 71 75
e 71 80
e 71 81
e 71 84
e 71 85
e 71 93
e 71 96
e 71 97
e 72 77
e 72 84
e 72 87
e 72 92
e 72 94
e 72 99
e 72 100
e 73 76
e 73 77
e 73 82
e 73 90
e 73 93
e 73 94
e 74 76
e 74 81
e 74 87
e 74 89
e 74 90
e 74 100
e 75 76
e 75 77
e 75 78
e 75 79
e 75 80
e 75 84
e 75 86
e 75 87
e 75 88
e 76 77
e 76 82
e 76 85
e 76 87
e 76 94
e 76 96
e 76 97
e 76 98
e 76 100
e 77 86
e 77 94
e 77 96
e 77 97
e 77 99
e 78 90
e 78 94
e 78 98
e 78 99
e 79 81
e 79 82
e 79 83
e 79 85
e 79 87
e 79 89
e 79 97
e 80 81
e 80 84
e 80 87
e 80 91
e 80 95
e 80 97
e 80 98
e 80 99
e 81 82
e 81 83
e 81 92
e 81 95
e 82 95
e 82 98
e 83 86
e 83 89
e 83 91
e 83 93
e 84 98
e 84 99
e 85 88
e 85 89
e 85 90
e 85 96
e 85 100
e 86 95
e 86 96
e 87 91
e 87 94
e 87 98
e 88 89
e 88 91
e 88 96
e 89 93
e 89 95
e 89 97
e 89 99
e 89 100
e 90 92
e 91 93
e 92 93
e 92 95
e 92 98
e 93 100
e 94 95
e 95 96
e 96 99
e 96 100
e 99 100
